SIZE = 17,
189,91,314,412,360,228,157,196,338,661,336,292,105,488,55,140,
439,70,68,191,254,472,83,27,287,211,567,346,47,84,420,
95,227,444,390,289,77,264,257,184,250,309,112,96,448,
297,638,435,237,421,437,578,466,324,240,329,297,53,
196,383,542,572,175,169,326,208,154,150,301,240,
495,364,262,505,402,182,353,289,476,29,199,
483,63,249,633,145,154,29,267,336,57,
202,332,426,745,528,349,685,121,246,
555,351,150,324,134,80,390,165,
232,243,282,259,372,36,123,
391,352,34,120,153,202,
74,105,108,142,268,
110,61,35,239,
530,236,207,
238,383,
518,
NOTE = 